% demand
num_movements = 29;
loading_factor = [1350, 1250, 1550, 1950, 900, 1650, 800, 1550, 800, 1950, 1550, 1650, 1050, 1600, 1300, 900, 1750, 1650, 1550, 1150, 2000, 800, 1550, 1300, 1850, 1100, 2000, 1600, 1500];
pickup_time = [0, 0, 0, 0, 0, 1, 1, 2, 3, 3, 3, 3, 3, 4, 4, 4, 5, 6, 6, 9, 9, 10, 10, 10, 10, 10, 12, 12, 12];
delivery_time = [2, 2, 1, 3, 1, 2, 3, 3, 6, 4, 4, 4, 4, 8, 8, 8, 6, 8, 8, 10, 10, 13, 12, 12, 12, 13, 13, 13, 13];

% transporter definition
total_capacity = 7000;
num_decks = 3;
capacity = [3000, 1000, 3000];

% ways out of decks
num_ways_out = 1;
paths_out = array3d(decks, ways_out, decks, [
% ways out of deck d1
2, 3, 0, 

% ways out of deck d2
3, 0, 0, 

% ways out of deck d3
0, 0, 0,	

]);

